objective value:                 0.000857791035999824
x_1_2                                               1 	(obj:0)
x_2_3                                               1 	(obj:0)
x_3_2                                               1 	(obj:0)
x_4_4                                               1 	(obj:0)
x_5_4                                               1 	(obj:0)
x_6_3                                               1 	(obj:0)
x_7_3                                               1 	(obj:0)
x_8_2                                               1 	(obj:0)
x_9_4                                               1 	(obj:0)
x_10_4                                              1 	(obj:0)
x_11_2                                              1 	(obj:0)
x_12_2                                              1 	(obj:0)
x_13_3                                              1 	(obj:0)
x_14_3                                              1 	(obj:0)
x_15_4                                              1 	(obj:0)
x_16_2                                              1 	(obj:0)
x_17_3                                              1 	(obj:0)
x_18_3                                              1 	(obj:0)
x_19_2                                              1 	(obj:0)
x_20_2                                              1 	(obj:0)
ind_2                                               1 	(obj:0)
abs_2_4                                             1 	(obj:0)
ind_3                                               1 	(obj:0)
abs_3_2                                             1 	(obj:0)
ind_4                                               1 	(obj:0)
abs_4_3                                             1 	(obj:0)
epsI                             0.000857791035999824 	(obj:1)
prodt_x_19_2_t_x_20_2_coh_2                         1 	(obj:0)
prodt_x_1_2_t_x_2_2_more_coh_2            3.906777538 	(obj:0)
prodt_x_3_2_t_x_4_2_more_coh_2           3.1649322514 	(obj:0)
prodt_x_8_2_t_x_11_2_more_coh_2          3.4420152686 	(obj:0)
prodt_x_11_2_t_x_12_2_more_coh_2         2.4157515196 	(obj:0)
prodt_x_12_2_t_x_13_2_more_coh_2          2.533976637 	(obj:0)
prodt_x_16_2_t_x_17_2_more_coh_2         1.0748911144 	(obj:0)
prodt_x_2_3_t_x_3_3_more_coh_3           6.0738630517 	(obj:0)
prodt_x_6_3_t_x_7_3_more_coh_3           4.6452042645 	(obj:0)
prodt_x_7_3_t_x_9_3_more_coh_3           3.7467114921 	(obj:0)
prodt_x_13_3_t_x_15_3_more_coh_3         3.5497223916 	(obj:0)
prodt_x_14_3_t_x_15_3_more_coh_3         0.7583110893 	(obj:0)
prodt_x_17_3_t_x_18_3_more_coh_3          1.173419678 	(obj:0)
prodt_x_4_4_t_x_5_4_more_coh_4          2.94187492775 	(obj:0)
prodt_x_5_4_t_x_6_4_more_coh_4           2.6406211342 	(obj:0)
prodt_x_9_4_t_x_14_4_more_coh_4          2.1399287558 	(obj:0)
prodt_x_10_4_t_x_11_4_more_coh_4         1.8743977127 	(obj:0)
prodt_x_1_2_t_x_2_2_more_irrev1_2_1     1.37381556160005 	(obj:0)
prodt_x_1_2_t_x_2_2_more_irrev2_2_1    -1.37381556160005 	(obj:0)
prodt_x_1_2_t_x_2_3_more_irrev1_3_1     1.26028740091783 	(obj:0)
prodt_x_1_2_t_x_2_3_more_irrev2_3_1    -1.26028740091783 	(obj:0)
prodt_x_1_2_t_x_2_3_more_irrev1_3_2    -1.26028740091783 	(obj:0)
prodt_x_2_3_t_x_3_2_more_irrev1_3_2   -0.650102163340818 	(obj:0)
prodt_x_3_2_t_x_4_3_more_irrev1_3_2     -3.5331477157613 	(obj:0)
prodt_x_6_3_t_x_7_2_more_irrev1_3_2    -3.75184360233314 	(obj:0)
prodt_x_7_3_t_x_10_2_more_irrev1_3_2   -0.359465320000002 	(obj:0)
prodt_x_8_2_t_x_9_3_more_irrev1_3_2    -1.35411606904083 	(obj:0)
prodt_x_11_2_t_x_13_3_more_irrev1_3_2    -2.84151214148361 	(obj:0)
prodt_x_12_2_t_x_14_3_more_irrev1_3_2           -0.3142948 	(obj:0)
prodt_x_13_3_t_x_17_2_more_irrev1_3_2   -0.862681274038236 	(obj:0)
prodt_x_14_3_t_x_15_2_more_irrev1_3_2    -2.20454075749429 	(obj:0)
prodt_x_16_2_t_x_20_3_more_irrev1_3_2   -0.577372733925675 	(obj:0)
prodt_x_17_3_t_x_18_2_more_irrev1_3_2   -0.144628424899873 	(obj:0)
prodt_x_18_3_t_x_19_2_more_irrev1_3_2     1.75075961646004 	(obj:0)
prodt_x_1_2_t_x_2_3_more_irrev2_3_2     1.26028740091783 	(obj:0)
prodt_x_2_3_t_x_3_2_more_irrev2_3_2    0.650102163340818 	(obj:0)
prodt_x_3_2_t_x_4_3_more_irrev2_3_2      3.5331477157613 	(obj:0)
prodt_x_6_3_t_x_7_2_more_irrev2_3_2     3.75184360233314 	(obj:0)
prodt_x_7_3_t_x_10_2_more_irrev2_3_2    0.359465320000002 	(obj:0)
prodt_x_8_2_t_x_9_3_more_irrev2_3_2     1.35411606904083 	(obj:0)
prodt_x_11_2_t_x_13_3_more_irrev2_3_2     2.84151214148361 	(obj:0)
prodt_x_12_2_t_x_14_3_more_irrev2_3_2            0.3142948 	(obj:0)
prodt_x_13_3_t_x_17_2_more_irrev2_3_2    0.862681274038236 	(obj:0)
prodt_x_14_3_t_x_15_2_more_irrev2_3_2     2.20454075749429 	(obj:0)
prodt_x_16_2_t_x_20_3_more_irrev2_3_2    0.577372733925675 	(obj:0)
prodt_x_17_3_t_x_18_2_more_irrev2_3_2    0.144628424899873 	(obj:0)
prodt_x_18_3_t_x_19_2_more_irrev2_3_2     1.75075961646004 	(obj:0)
prodt_x_1_2_t_x_5_4_more_irrev1_4_1    -2.64148473415561 	(obj:0)
prodt_x_1_2_t_x_5_4_more_irrev2_4_1     2.64148473415561 	(obj:0)
prodt_x_1_2_t_x_5_4_more_irrev1_4_2     2.64148473415561 	(obj:0)
prodt_x_3_2_t_x_4_4_more_irrev1_4_2    0.317988327225988 	(obj:0)
prodt_x_4_4_t_x_7_2_more_irrev1_4_2           1.13148816 	(obj:0)
prodt_x_5_4_t_x_7_2_more_irrev1_4_2     2.90200505265714 	(obj:0)
prodt_x_8_2_t_x_9_4_more_irrev1_4_2     1.76361959479767 	(obj:0)
prodt_x_9_4_t_x_11_2_more_irrev1_4_2     2.76107911913519 	(obj:0)
prodt_x_10_4_t_x_12_2_more_irrev1_4_2    0.801989100351233 	(obj:0)
prodt_x_11_2_t_x_13_4_more_irrev1_4_2    0.189682583352764 	(obj:0)
prodt_x_12_2_t_x_14_4_more_irrev1_4_2    0.751239960000006 	(obj:0)
prodt_x_15_4_t_x_16_2_more_irrev1_4_2     1.67376814322278 	(obj:0)
prodt_x_1_2_t_x_5_4_more_irrev2_4_2    -2.64148473415561 	(obj:0)
prodt_x_3_2_t_x_4_4_more_irrev2_4_2   -0.317988327225988 	(obj:0)
prodt_x_4_4_t_x_7_2_more_irrev2_4_2          -1.13148816 	(obj:0)
prodt_x_5_4_t_x_7_2_more_irrev2_4_2    -2.90200505265714 	(obj:0)
prodt_x_8_2_t_x_9_4_more_irrev2_4_2    -1.76361959479767 	(obj:0)
prodt_x_9_4_t_x_11_2_more_irrev2_4_2    -2.76107911913519 	(obj:0)
prodt_x_10_4_t_x_12_2_more_irrev2_4_2   -0.801989100351233 	(obj:0)
prodt_x_11_2_t_x_13_4_more_irrev2_4_2   -0.189682583352764 	(obj:0)
prodt_x_12_2_t_x_14_4_more_irrev2_4_2   -0.751239960000006 	(obj:0)
prodt_x_15_4_t_x_16_2_more_irrev2_4_2    -1.67376814322278 	(obj:0)
prodt_x_2_3_t_x_4_4_more_irrev1_4_3    -2.42609051788391 	(obj:0)
prodt_x_4_4_t_x_7_3_more_irrev1_4_3          -2.23424838 	(obj:0)
prodt_x_5_4_t_x_7_3_more_irrev1_4_3   -0.673983381019022 	(obj:0)
prodt_x_6_3_t_x_7_4_more_irrev1_4_3    -1.08531677152512 	(obj:0)
prodt_x_7_3_t_x_8_4_more_irrev1_4_3    -1.56980821999998 	(obj:0)
prodt_x_9_4_t_x_11_3_more_irrev1_4_3   -0.743782270527475 	(obj:0)
prodt_x_10_4_t_x_12_3_more_irrev1_4_3    -2.42726092869045 	(obj:0)
prodt_x_13_3_t_x_14_4_more_irrev1_4_3                   -1 	(obj:0)
prodt_x_14_3_t_x_16_4_more_irrev1_4_3  -0.0374892163704867 	(obj:0)
prodt_x_15_4_t_x_16_3_more_irrev1_4_3    -1.42851859199833 	(obj:0)
prodt_x_2_3_t_x_4_4_more_irrev2_4_3     2.42609051788391 	(obj:0)
prodt_x_4_4_t_x_7_3_more_irrev2_4_3           2.23424838 	(obj:0)
prodt_x_5_4_t_x_7_3_more_irrev2_4_3    0.673983381019022 	(obj:0)
prodt_x_6_3_t_x_7_4_more_irrev2_4_3     1.08531677152512 	(obj:0)
prodt_x_7_3_t_x_8_4_more_irrev2_4_3     1.56980821999998 	(obj:0)
prodt_x_9_4_t_x_11_3_more_irrev2_4_3    0.743782270527475 	(obj:0)
prodt_x_10_4_t_x_12_3_more_irrev2_4_3     2.42726092869045 	(obj:0)
prodt_x_13_3_t_x_14_4_more_irrev2_4_3                    1 	(obj:0)
prodt_x_14_3_t_x_16_4_more_irrev2_4_3   0.0374892163704867 	(obj:0)
prodt_x_15_4_t_x_16_3_more_irrev2_4_3     1.42851859199833 	(obj:0)
SCIP Status        : solving was interrupted [time limit reached]
Total Time         :    3600.00
  solving          :    3600.00
  presolving       :       0.05 (included in solving)
  reading          :       0.00
  copying          :       1.29 (128 #copies) (minimal 0.00, maximal 0.02, average 0.01)
Original Problem   :
  Problem name     : ../instances/Pot4/Pot4_T_20B_alpha=9.txt.spa
  Variables        : 101 (100 binary, 0 integer, 0 implicit integer, 1 continuous)
  Constraints      : 193 initial, 193 maximal
  Objective sense  : maximize
Presolved Problem  :
  Problem name     : t_../instances/Pot4/Pot4_T_20B_alpha=9.txt.spa
  Variables        : 590 (92 binary, 0 integer, 16 implicit integer, 482 continuous)
  Constraints      : 2015 initial, 8095 maximal
Presolvers         :   ExecTime  SetupTime  Calls  FixedVars   AggrVars   ChgTypes  ChgBounds   AddHoles    DelCons    AddCons   ChgSides   ChgCoefs
  boundshift       :       0.00       0.00      0          0          0          0          0          0          0          0          0          0
  components       :       0.00       0.00      1          0          0          0          0          0          0          0          0          0
  convertinttobin  :       0.00       0.00      0          0          0          0          0          0          0          0          0          0
  domcol           :       0.00       0.00      1          0          0          0          0          0          0          0          0          0
  dualagg          :       0.00       0.00      0          0          0          0          0          0          0          0          0          0
  dualinfer        :       0.00       0.00      0          0          0          0          0          0          0          0          0          0
  gateextraction   :       0.00       0.00      3          0          0          0          0          0        108         34          0          0
  implfree         :       0.00       0.00      0          0          0          0          0          0          0          0          0          0
  implics          :       0.00       0.00      4          0          0          0          0          0          0          0          0          0
  inttobinary      :       0.00       0.00      0          0          0          0          0          0          0          0          0          0
  redvub           :       0.00       0.00      0          0          0          0          0          0          0          0          0          0
  stuffing         :       0.00       0.00      1          0          0          0          0          0          0          0          0          0
  trivial          :       0.00       0.00      7          0          0          0          0          0          0          0          0          0
  tworowbnd        :       0.00       0.00      0          0          0          0          0          0          0          0          0          0
  dualfix          :       0.00       0.00      7          4          0          0          0          0          0          0          0          0
  genvbounds       :       0.00       0.00      0          0          0          0          0          0          0          0          0          0
  probing          :       0.03       0.00      1          0          0          0          4          0          0          0          0          0
  pseudoobj        :       0.00       0.00      0          0          0          0          0          0          0          0          0          0
  varbound         :       0.00       0.00      9          0          0          0          0          0         28         28          0          0
  setppc           :       0.00       0.00     12          0          0          0          0          0          0          0          0          0
  and              :       0.00       0.00      4          0         12          0          0          0         12          0          0          0
  linear           :       0.01       0.00      9          3          1          0          4          0          7          0         12         12
  logicor          :       0.00       0.00      7          0          0          0          0          0          0          0          0          0
  bounddisjunction :       0.00       0.00      0          0          0          0          0          0          0          0          0          0
  quadratic        :       0.01       0.00      2          0          0          0          0          0          0       1915          0          0
  root node        :          -          -      -          1          -          -         80          -          -          -          -          -
Constraints        :     Number  MaxNumber  #Separate #Propagate    #EnfoLP    #EnfoPS     #Check   #ResProp    Cutoffs    DomReds       Cuts    Applied      Conss   Children
  integral         :          0          0          0          0    2026720          0     434138          0          0      58135          0          0        159    3998780
  varbound         :        869        869         83   12134972      22686          0     154844    4130144      62499   80832902          0          0          0          0
  setppc           :        110        110         83   12071964      22686          0       2587    2183122      14208    5090921         12          0          0          0
  and              :         22         22       2169      16386          0          0       2065     384512          2       2573         27         11          0          0
  linear           :        979        979         83   12058267      19311          0       2020    1962845     225726  122386028     931916     931717          0          0
  logicor          :         35+      1339         80    3314258          0          0          0      58485       2790     122192          2          2          0          0
  bounddisjunction :          0+      5075          0    5500663          0          0          0     635466       6470    8094735          0          0          0          0
  countsols        :          0          0          0          0          5          0     279288          0          0          0          0          0          0          0
Constraint Timings :  TotalTime  SetupTime   Separate  Propagate     EnfoLP     EnfoPS      Check    ResProp    SB-Prop
  integral         :      18.08       0.00       0.00       0.00      18.01       0.00       0.07       0.00       0.00
  varbound         :      64.86       0.00       0.00      63.33       0.16       0.00       0.54       0.72       0.11
  setppc           :      38.87       0.00       0.00      38.22       0.00       0.00       0.01       0.51       0.13
  and              :       0.10       0.00       0.00       0.00       0.00       0.00       0.00       0.10       0.00
  linear           :     188.83       0.00       0.00     186.39       0.66       0.00       0.05       1.36       0.37
  logicor          :      27.90       0.00       0.00      27.89       0.00       0.00       0.00       0.01       0.00
  bounddisjunction :     164.49       0.00       0.00     164.30       0.00       0.00       0.00       0.14       0.05
  countsols        :       0.00       0.00       0.00       0.00       0.00       0.00       0.00       0.00       0.00
Propagators        : #Propagate   #ResProp    Cutoffs    DomReds
  dualfix          :          2          0          0          0
  genvbounds       :          0          0          0          0
  obbt             :          0          0          0          0
  probing          :          0          0          0          0
  pseudoobj        :   12841377          0       3563         78
  redcost          :    4447223          0        175     613602
  rootredcost      :          6          0          0          1
  vbounds          :   14160626       5570          0        100
Propagator Timings :  TotalTime  SetupTime   Presolve  Propagate    ResProp    SB-Prop
  dualfix          :       0.00       0.00       0.00       0.00       0.00       0.00
  genvbounds       :       1.74       0.00       0.00       1.74       0.00       0.00
  obbt             :       0.00       0.00       0.00       0.00       0.00       0.00
  probing          :       0.03       0.00       0.03       0.00       0.00       0.00
  pseudoobj        :       3.40       0.00       0.00       3.39       0.00       0.01
  redcost          :      21.18       0.00       0.00      21.18       0.00       0.00
  rootredcost      :       2.20       0.00       0.00       2.20       0.00       0.00
  vbounds          :       4.48       0.00       0.00       4.48       0.00       0.00
Conflict Analysis  :       Time      Calls    Success    DomReds  Conflicts   Literals    Reconvs ReconvLits   LP Iters
  propagation      :       4.93      91258      90927          -     945163       35.8       6791       46.3          -
  infeasible LP    :      12.23      89471      84782          -    1350162       37.5        107       13.3          0
  bound exceed. LP :       0.00          0          0          -          0        0.0          0        0.0          0
  strong branching :       0.00          0          0          -          0        0.0          0        0.0          0
  pseudo solution  :       0.00          0          0          -          0        0.0          0        0.0          -
  applied globally :       3.79          -          -          0     320695       19.6          -          -          -
  applied locally  :          -          -          -          0       2237       32.9          -          -          -
Separators         :   ExecTime  SetupTime      Calls    Cutoffs    DomReds       Cuts    Applied      Conss
  cut pool         :       0.00                    81          -          -       1317          -          -    (maximal pool size: 843)
  cgmip            :       0.00       0.00          0          0          0          0          0          0
  clique           :       0.00       0.00         82          0          0         36         32          0
  closecuts        :       0.00       0.00          0          0          0          0          0          0
  cmir             :       0.01       0.00         10          0          0        248        170          0
  disjunctive      :       0.00       0.00          0          0          0          0          0          0
  eccuts           :       0.00       0.00          0          0          0          0          0          0
  flowcover        :       0.14       0.00         15          0          0        309         20          0
  gomory           :       0.03       0.00         10          0          0          8          8          0
  impliedbounds    :       0.01       0.00         82          0          0        690        140          0
  intobj           :       0.00       0.00          0          0          0          0          0          0
  mcf              :       0.01       0.00          1          0          0          0          0          0
  oddcycle         :       0.00       0.00          0          0          0          0          0          0
  rapidlearning    :       0.00       0.00          0          0          0          0          0          0
  strongcg         :       0.08       0.00         20          0          0         71         18          0
  zerohalf         :       0.00       0.00          0          0          0          0          0          0
Pricers            :   ExecTime  SetupTime      Calls       Vars
  problem variables:       0.00          -          0          0
Branching Rules    :   ExecTime  SetupTime   BranchLP  BranchExt   BranchPS    Cutoffs    DomReds       Cuts      Conss   Children
  allfullstrong    :       0.00       0.00          0          0          0          0          0          0          0          0
  cloud            :       0.00       0.00          0          0          0          0          0          0          0          0
  distribution     :       0.00       0.00          0          0          0          0          0          0          0          0
  fullstrong       :       0.00       0.00          0          0          0          0          0          0          0          0
  inference        :       0.00       0.00          0          0          0          0          0          0          0          0
  leastinf         :       0.00       0.00          0          0          0          0          0          0          0          0
  mostinf          :       0.00       0.00          0          0          0          0          0          0          0          0
  multaggr         :       0.00       0.00          0          0          0          0          0          0          0          0
  nodereopt        :       0.00       0.00          0          0          0          0          0          0          0          0
  pscost           :       0.00       0.00          0          0          0          0          0          0          0          0
  random           :       0.00       0.00          0          0          0          0          0          0          0          0
  relpscost        :      17.31       0.00    2004033          0          0          0      58135          0       -322    3998780
Primal Heuristics  :   ExecTime  SetupTime      Calls      Found       Best
  LP solutions     :       0.00          -          -          5          -
  pseudo solutions :       0.00          -          -          0          -
  strong branching :       0.00          -          -          0          -
  SpaGreedy        :     320.38       0.00     279287          2          1
  actconsdiving    :       0.00       0.00          0          0          0
  bound            :       0.00       0.00          0          0          0
  clique           :       0.00       0.00          0          0          0
  coefdiving       :      29.73       0.00       9971          0          0
  crossover        :       1.00       0.00          0          0          0
  dins             :       0.00       0.00          0          0          0
  distributiondivin:      58.98       0.00       9970          0          0
  dualval          :       0.00       0.00          0          0          0
  feaspump         :      18.41       0.00       2227          0          0
  fixandinfer      :       0.00       0.00          0          0          0
  fracdiving       :      28.31       0.00       9971          0          0
  guideddiving     :      28.43       0.00       9971          0          0
  indicator        :       0.39       0.00          0          0          0
  intdiving        :       0.00       0.00          0          0          0
  intshifting      :       0.42       0.00        218          0          0
  linesearchdiving :      28.66       0.00       9971          0          0
  localbranching   :       0.00       0.00          0          0          0
  mutation         :       0.00       0.00          0          0          0
  nlpdiving        :       0.05       0.00          0          0          0
  objpscostdiving  :      18.49       0.00       2786          0          0
  octane           :       0.00       0.00          0          0          0
  ofins            :       0.00       0.00          0          0          0
  oneopt           :       0.51       0.00          5          0          0
  proximity        :       0.00       0.00          0          0          0
  pscostdiving     :      28.04       0.00       9970          0          0
  randrounding     :       1.26       0.00     153042          0          0
  rens             :       0.03       0.00          1          0          0
  reoptsols        :       0.00       0.00          0          0          0
  rins             :       4.96       0.00         99          0          0
  rootsoldiving    :      19.51       0.00       3179          0          0
  rounding         :       0.77       0.00      19707          0          0
  shiftandpropagate:       0.00       0.00          0          0          0
  shifting         :       1.82       0.00       5651          0          0
  simplerounding   :       0.47       0.00          0          0          0
  subnlp           :       0.51       0.00          0          0          0
  trivial          :       0.00       0.00          2          0          0
  trivialnegation  :       0.00       0.00          0          0          0
  trysol           :       0.84       0.00          0          0          0
  twoopt           :       0.00       0.00          0          0          0
  undercover       :       0.00       0.00          1          0          0
  vbounds          :       0.00       0.00          0          0          0
  veclendiving     :      32.03       0.00       9971          0          0
  zeroobj          :       0.00       0.00          0          0          0
  zirounding       :       0.79       0.00       1000          0          0
  other solutions  :          -          -          -          0          -
Diving Statistics  :      Calls      Nodes   LP Iters Backtracks   MinDepth   MaxDepth   AvgDepth  NLeafSols  MinSolDpt  MaxSolDpt  AvgSolDpt
  actconsdiving    :          0          -          -          -          -          -          -          -          -          -          -
  coefdiving       :       9971      71855     643886      13910         17         41       28.3          -          -          -          -
  distributiondivin:       9970      62032     640175      14148         16         39       27.4          -          -          -          -
  fracdiving       :       9971      68284     676983      15177         17         47       27.7          -          -          -          -
  guideddiving     :       9971      68663     688738      15755         18         46       27.9          -          -          -          -
  linesearchdiving :       9971      61556     670703      14959         17         39       27.1          -          -          -          -
  pscostdiving     :       9970      75871     643806      12788         16         49       28.8          -          -          -          -
  veclendiving     :       9971      69469     648660      17520         16         38       27.6          -          -          -          -
LP                 :       Time      Calls Iterations  Iter/call   Iter/sec  Time-0-It Calls-0-It
  primal LP        :       0.00         12          0       0.00          -       0.00         12
  dual LP          :    1475.64    4075519   58725336      17.02   39796.52      60.85     625729
  lex dual LP      :       0.00          0          0       0.00          -
  barrier LP       :       0.00          0          0       0.00          -       0.00          0
  diving/probing LP:     161.13     264431    6476229      24.49   40192.57
  strong branching :       5.39       6007     180187      30.00   33429.87
    (at root node) :          -         23       2766     120.26          -
  conflict analysis:       0.00          0          0       0.00          -
B&B Tree           :
  number of runs   :          1
  nodes            :    3835339 (1999390 internal, 1835949 leaves)
  nodes (total)    :    3835339 (1999390 internal, 1835949 leaves)
  nodes left       :     156421
  max depth        :         38
  max depth (total):         38
  backtracks       :    1052201 (27.4%)
  delayed cutoffs  :       6900
  repropagations   :     140992 (3214560 domain reductions, 6226 cutoffs)
  avg switch length:       6.40
  switching time   :     564.11
Root Node          :
  First LP value   : +3.00000000000000e+00
  First LP Iters   :        369
  First LP Time    :       0.00
  Final Dual Bound : +7.04399772392821e-03
  Final Root Iters :       3012
Solution           :
  Solutions found  :          7 (6 improvements)
  First Solution   : +7.77215161999995e-04   (in run 1, after 1 nodes, 0.05 seconds, depth 0, found by <SpaGreedy>)
  Gap First Sol.   :   infinite
  Gap Last Sol.    :      64.10 %
  Primal Bound     : +8.57791035999824e-04   (in run 1, after 305341 nodes, 301.93 seconds, depth 29, found by <relaxation>)
  Dual Bound       : +1.16995223572945e-03
  Gap              :      36.39 %
  Avg. Gap         :      38.08 % (137084.48 primal-dual integral)
